# 3d Lennard-Jones 
units		lj
atom_style	atomic
atom_modify	map array
boundary	p p p

lattice		fcc 0.9
region		box block 0 8 0 8 0 8
create_box	1 box
create_atoms	1 box
mass		1 1.0

variable Temperature equal 0.5

velocity	all create ${Temperature} 87287 loop geom

pair_style	lj/cut 2.5
pair_coeff	1 1 1.0 1.0 2.5

fix		1 all nvt temp ${Temperature} ${Temperature} 5.

thermo 1000

timestep 0.01

dump MYDUMP all atom 5000 dump.lammpstrj
dump_modify MYDUMP sort id


run		100000

